28
0 1 2 3 1 4 2 3 3 5 1 4 6 7 5 8 6 7 4 4 2 9 8 8 10 7 9 10 1 9 6 3 7 11 8 12 5 6 13 9 11 11 10 13 5 14 14 15 16 15 17 18 16 19 13 13 17 12 11 20 21 2 19 12 21 14 20 9 21 17 18 20 18 22 19 18 17 23 24 19 22 25 23 21 0 20 16 26 24 16 0 4 25 26 26 23 27 15 24 27 
